0.00 0.25 4.34 0.56 1.75 1.30 1.25 2.39 1.58 1.79 1.45 
0.25 0.00 4.20 0.32 1.57 1.08 1.02 2.19 1.36 1.58 1.20 
4.34 4.20 0.00 3.99 2.69 3.24 3.34 2.16 3.05 2.85 3.38 
0.56 0.32 3.99 0.00 1.32 0.80 0.73 1.93 1.07 1.29 0.89 
1.75 1.57 2.69 1.32 0.00 0.55 0.65 0.63 0.42 0.35 0.77 
1.30 1.08 3.24 0.80 0.55 0.00 0.10 1.14 0.28 0.49 0.36 
1.25 1.02 3.34 0.73 0.65 0.10 0.00 1.22 0.34 0.56 0.30 
2.39 2.19 2.16 1.93 0.63 1.14 1.22 0.00 0.90 0.69 1.23 
1.58 1.36 3.05 1.07 0.42 0.28 0.34 0.90 0.00 0.22 0.36 
1.79 1.58 2.85 1.29 0.35 0.49 0.56 0.69 0.22 0.00 0.53 
1.45 1.20 3.38 0.89 0.77 0.36 0.30 1.23 0.36 0.53 0.00 
